p cnf 3 10
-3 -1 1 2 3
 4815982277377340936 0
-2 2
 1 2 3 4815982277377340936 0
-2 -4815982277377340936 -3 2 1 4815982277377340936 3
-4815982277377340936 1 2 3 4815982277377340936 0
 1 2 3 4815982277377340936 0
-3 -2 -4815982277377340936 2 4815982277377340936 3

 2 1 4815982277377340936 3 0
